
  22   10
  10   10   10   10   10   10   10   10   10   10

   0   0   0   0   0   0   0   0   0   0   0  14 2 3 4 5 6 7 8 15 16 17 18 19 20 21 
   5  10  10  10  10  10  10  10  10  10  10   4 14 13 10 9 
   6  10  10  10  10  10  10  10  10  10  10   3 11 10 9 
   8  10  10  10  10  10  10  10  10  10  10   2 12 9 
   1  10  10  10  10  10  10  10  10  10  10   2 11 9 
   3  10  10  10  10  10  10  10  10  10  10   2 10 9 
   1  10  10  10  10  10  10  10  10  10  10   1 9 
   6  10  10  10  10  10  10  10  10  10  10   1 9 
   9  10  10  10  10  10  10  10  10  10  10   1 22
   6  10  10  10  10  10  10  10  10  10  10   1 22
   3  10  10  10  10  10  10  10  10  10  10   1 22
   9  10  10  10  10  10  10  10  10  10  10   1 22
   4  10  10  10  10  10  10  10  10  10  10   1 22
  10  10  10  10  10  10  10  10  10  10  10   1 22
   2  10  10  10  10  10  10  10  10  10  10   1 22
  10  10  10  10  10  10  10  10  10  10  10   1 22
   1  10  10  10  10  10  10  10  10  10  10   1 22
   9  10  10  10  10  10  10  10  10  10  10   1 22
   2  10  10  10  10  10  10  10  10  10  10   1 22
   1  10  10  10  10  10  10  10  10  10  10   1 22
  10  10  10  10  10  10  10  10  10  10  10   1 22
   0   0   0   0   0   0   0   0   0   0   0   0 
